
  32    4
  10   10   10   10

   0   0   0   0   0   2 2 12 
   9   0   1   1   1   1 3 
   2   1   7   0   3   1 4 
   8   2   6   0   3   1 5 
   7   6   1   0   8   1 6 
   8   2   0   4   5   1 7 
   3   1   0   5   6   1 8 
   8   2   6   3   0   1 9 
   4   0   5   5   6   1 10 
  10   7   0   3   3   1 11 
   3   3   4   0   5   1 13 
   9   4   4   4   0   1 13 
   2   4   5   5   0   1 14 
   9   0   5   5   2   1 15 
   9   4   1   0   4   1 16 
   6   5   3   0   3   1 17 
   7   4   4   5   0   2 23 18 
   1   4   0   5   2   1 19 
   4   0   1   2   4   2 31 20 
  10   4   4   0   5   2 25 21 
  10   4   3   2   0   1 22 
   3   6   0   4   1   2 28 24 
  10   3   6   0   8   2 31 27 
   6   7   0   7   7   1 26 
   4   0   3   7   4   1 26 
   8   0   3   6   2   1 27 
   1   0   4   5   4   1 29 
   8   3   5   3   0   1 30 
   8   4   6   3   0   1 32
   6   8   6   3   0   1 32
   2   0   3   1   2   1 32
   0   0   0   0   0   0 
